
Gurobi 7.0.2 (win64, Java) logging started 06/22/17 00:46:22


Gurobi 7.0.2 (win64, Java) logging started 06/22/17 00:51:56


Gurobi 7.0.2 (win64, Java) logging started 06/22/17 00:58:21


Gurobi 7.0.2 (win64, Java) logging started 06/22/17 01:01:42


Gurobi 7.0.2 (win64, Java) logging started 06/22/17 01:03:13


Gurobi 7.0.2 (win64, Java) logging started 06/22/17 01:07:44


Gurobi 7.0.2 (win64, Java) logging started 06/22/17 01:12:57


Gurobi 7.0.2 (win64, Java) logging started 06/22/17 01:16:46


Gurobi 7.0.2 (win64, Java) logging started 06/22/17 01:19:09


Gurobi 7.0.2 (win64, Java) logging started 06/22/17 01:23:11


Gurobi 7.0.2 (win64, Java) logging started 06/22/17 01:42:57


Gurobi 7.0.2 (win64, Java) logging started 07/26/17 15:59:35


Gurobi 7.0.2 (win64, Java) logging started 07/26/17 16:05:56


Gurobi 7.0.2 (win64, Java) logging started 07/26/17 16:21:01


Gurobi 7.0.2 (win64, Java) logging started 07/26/17 16:27:28


Gurobi 7.0.2 (win64, Java) logging started 07/26/17 16:36:25


Gurobi 7.0.2 (win64, Java) logging started 07/26/17 16:42:06


Gurobi 7.0.2 (win64, Java) logging started 07/26/17 16:46:10


Gurobi 7.0.2 (win64, Java) logging started 07/26/17 16:51:13


Gurobi 7.0.2 (win64, Java) logging started 07/26/17 16:54:44


Gurobi 7.0.2 (win64, Java) logging started 07/26/17 16:58:04


Gurobi 7.0.2 (win64, Java) logging started 07/26/17 17:26:23


Gurobi 7.0.2 (win64, Java) logging started 07/26/17 17:36:55


Gurobi 7.0.2 (win64, Java) logging started 07/26/17 18:17:58

